NAME: tsp20_23
COMMENT: 20-tsp problem (Padberg/Rinaldi)
TYPE: TSP
DIMENSION: 20
EDGE_WEIGHT_TYPE : EUC_2D
NODE_COORD_SECTION
1 26 29
2 40 9
3 24 15
4 20 34
5 8 34
6 9 14
7 19 13
8 12 13
9 29 11
10 13 17
11 0 8
12 9 38
13 33 34
14 23 27
15 6 2
16 16 18
17 1 26
18 7 16
19 2 7
20 29 31
